Route #1: 0 26 5 3 24 0
Route #2: 0 13 30 15 0
Route #3: 0 29 28 9 12 38 37 6 11 0
Route #4: 0 20 32 27 34 22 21 23 17 36 1 0
Route #5: 0 18 10 16 4 8 7 0
Route #6: 0 31 35 25 33 33 19 2 14 0
Cost 922:
